0000000000000000
0000000000000000
0000000000000000
0011111111111000
0111100111111000
0000000011111000
0000000001110000
0000000001110000
0000000001110000
0000000001110000
0000001111110000
0000111011110000
0001110001110000
0011000001111000
0011000001111100
0011000001111000
